<number of tasks>
50

<cycle time>
1000

<order strength>
0.198


<task times>
1 496
2 339
3 701
4 441
5 538
6 698
7 345
8 363
9 659
10 537
11 462
12 417
13 354
14 734
15 375
16 630
17 472
18 493
19 659
20 614
21 409
22 567
23 548
24 721
25 539
26 575
27 419
28 373
29 372
30 490
31 562
32 589
33 507
34 451
35 225
36 412
37 551
38 405
39 603
40 520
41 471
42 527
43 560
44 420
45 478
46 466
47 494
48 456
49 679
50 325

<precedence relations>
1,6
2,4
2,7
2,8
2,9
3,5
3,10
4,11
5,12
6,14
7,13
8,15
8,16
9,28
11,17
12,18
13,18
14,19
14,21
14,22
16,20
17,25
18,23
18,26
18,27
19,24
19,29
21,28
22,30
23,31
24,32
25,36
26,35
27,33
27,37
27,38
28,34
29,39
31,42
32,43
33,40
34,41
35,42
36,44
36,45
37,46
40,47
41,48
45,48
45,50
46,49

<end>
